k-points
 0
Monkhorst Pack
 replacekpt replacekpt replacekpt
 0 0 0
