SYSTEM  = cu100
PREC    = Normal
NWRITE  = 2
ISTART  = 0
ICHARG  = 2
LWAVE   = F
LCHARG  = F
LAECHG  = F
ALGO    = Fast
ISYM    = 1

NSW     = 1000
EDIFF   =  1E-5
EDIFFG  = -1E-2
IBRION  = 2
ISIF    = 2
POTIM   = 0.5

ENCUT   = 500
ISMEAR  = 0
SIGMA   = 0.1
ISPIN   = 2
IVDW    = 11


