 C  O                                   
   1.0000000000000000     
    15.0000000000000000    0.0000000000000000    0.0000000000000000
     0.0000000000000000   15.0000000000000000    0.0000000000000000
     0.0000000000000000    0.0000000000000000   15.0000000000000000
   C    O 
     1     1
Direct
 -0.0000000000000000  0.0000000000000000  0.0005561167198156
  0.0000000000000000 -0.0000000000000000  0.0767772166135199

  0.00000000E+00  0.00000000E+00  0.00000000E+00
  0.00000000E+00  0.00000000E+00  0.00000000E+00
