Cu  O  C                                
   1.0000000000000000     
     5.1053109601668734    0.0000000000000000    0.0000000000000000
     0.0000000000000000    5.1053109601668734    0.0000000000000000
     0.0000000000000000    0.0000000000000000   27.6099999999999994
   Cu   O    C 
    12     1     1
Selective dynamics
Direct
  0.0000000000000000  0.0000000000000000  0.4346251358203546   F   F   F
  0.5000000000000000  0.0000000000000000  0.4346251358203546   F   F   F
  0.0000000000000000  0.5000000000000000  0.4346251358203546   F   F   F
  0.5000000000000000  0.5000000000000000  0.4346251358203546   F   F   F
  0.2500000000000000  0.2500000000000000  0.5000000000000000   F   F   F
  0.7500000000000000  0.2500000000000000  0.5000000000000000   F   F   F
  0.2500000000000000  0.7500000000000000  0.5000000000000000   F   F   F
  0.7500000000000000  0.7500000000000000  0.5000000000000000   F   F   F
 -0.0000000000000000 -0.0000000000000000  0.5630663901488557   T   T   T
  0.5000000000000000 -0.0000000000000000  0.5630341844585098   T   T   T
 -0.0000000000000000  0.5000000000000000  0.5630341844585098   T   T   T
  0.5000000000000000  0.5000000000000000  0.5677738379540291   T   T   T
  0.5000000000000000  0.5000000000000000  0.6766331179278919   T   T   T
  0.5000000000000000  0.5000000000000000  0.6347130994083078   T   T   T

  0.00000000E+00  0.00000000E+00  0.00000000E+00
  0.00000000E+00  0.00000000E+00  0.00000000E+00
  0.00000000E+00  0.00000000E+00  0.00000000E+00
  0.00000000E+00  0.00000000E+00  0.00000000E+00
  0.00000000E+00  0.00000000E+00  0.00000000E+00
  0.00000000E+00  0.00000000E+00  0.00000000E+00
  0.00000000E+00  0.00000000E+00  0.00000000E+00
  0.00000000E+00  0.00000000E+00  0.00000000E+00
  0.00000000E+00  0.00000000E+00  0.00000000E+00
  0.00000000E+00  0.00000000E+00  0.00000000E+00
  0.00000000E+00  0.00000000E+00  0.00000000E+00
  0.00000000E+00  0.00000000E+00  0.00000000E+00
  0.00000000E+00  0.00000000E+00  0.00000000E+00
  0.00000000E+00  0.00000000E+00  0.00000000E+00
