 O  H                                   
   1.0000000000000000     
    20.0000000000000000    0.0000000000000000    0.0000000000000000
     0.0000000000000000   20.0000000000000000    0.0000000000000000
     0.0000000000000000    0.0000000000000000   20.0000000000000000
   O    H 
     1     2
Direct
  0.5000000000000000  0.5000000000000000  0.5148744590321352
  0.5000000000000000  0.5384256636431294  0.4851089079839321
  0.5000000000000000  0.4615743363568706  0.4851089079839321

  0.00000000E+00  0.00000000E+00  0.00000000E+00
  0.00000000E+00  0.00000000E+00  0.00000000E+00
  0.00000000E+00  0.00000000E+00  0.00000000E+00
