 B  N 
 1.0000000000000000
     5.0248564562400961   -8.7033066829483481    0.0000000000000000
     5.0248564562400961    8.7033066829483481    0.0000000000000000
     0.0000000000000000    0.0000000000000000   15.0000000000000000
 B   N  
  16  16
Cartesian
  1.2562141140600240  0.7252755569123521  1.9268162499999999
  5.0248564562400961 -1.4505511138247349  1.9268162499999999
  7.5372846843601433  2.9011022276494391  1.9268162499999999
  3.7686423421800721 -3.6263777845618219  1.9268162499999999
  8.7934987984201687  0.7252755569123521  1.9268162499999999
  6.2810705703001197  5.0769288983865266  1.9268162499999999
  5.0248564562400961  2.9011022276494391  1.9268162499999999
  5.0248564562400961 -5.8022044552989094  1.9268162499999999
  3.7686423421800721  0.7252755569123521  1.9268162499999999
  6.2810705703001197 -3.6263777845618219  1.9268162499999999
  5.0248564562400961  7.2527555691236127  1.9268162499999999
  3.7686423421800721  5.0769288983865266  1.9268162499999999
  7.5372846843601433 -1.4505511138247349  1.9268162499999999
  2.5124282281200481  2.9011022276494391  1.9268162499999999
  2.5124282281200481 -1.4505511138247349  1.9268162499999999
  6.2810705703001197  0.7252755569123521  1.9268162499999999
  5.0248564562400961 -7.2527555691236127  1.9268162499999999
  6.2810705703001197 -0.7252755569123521  1.9268162499999999
  7.5372846843601433  1.4505511138247349  1.9268162499999999
  6.2810705703001197 -5.0769288983865266  1.9268162499999999
  7.5372846843601433 -2.9011022276494391  1.9268162499999999
  6.2810705703001197  3.6263777845618219  1.9268162499999999
  3.7686423421800721 -5.0769288983865266  1.9268162499999999
  5.0248564562400961  1.4505511138247349  2.7268162500000006
  3.7686423421800721 -0.7252755569123521  1.9268162499999999
  2.5124282281200481 -2.9011022276494391  1.9268162499999999
  5.0248564562400961  5.8022044552989094  1.9268162499999999
  3.7686423421800721  3.6263777845618219  1.9268162499999999
  2.5124282281200481  1.4505511138247349  1.9268162499999999
  1.2562141140600240 -0.7252755569123521  1.9268162499999999
  5.0248564562400961 -2.9011022276494391  1.9268162499999999
  8.7934987984201687 -0.7252755569123521  1.9268162499999999
