SYSTEM  = hBN
PREC    = Normal
NWRITE  = 2
ISTART  = 0
ICHARG  = 2
LWAVE   = F
LCHARG  = T
LAECHG  = T
ALGO    = Fast
ISYM    = 1

NSW     = 0
EDIFF   =  1E-5
EDIFFG  = -1E-2
IBRION  = -1
ISIF    = 2
POTIM   = 0.5

ENCUT   = 500
ISMEAR  = 0
SIGMA   = 0.1
ISPIN   = 2
IVDW    = 11

NGXF    = replacegridhere_x
NGYF    = replacegridhere_y
NGZF    = replacegridhere_z


