Cu                                      
   1.0000000000000000     
     5.1053109601668734    0.0000000000000000    0.0000000000000000
     0.0000000000000000    5.1053109601668734    0.0000000000000000
     0.0000000000000000    0.0000000000000000   27.6099999999999994
   Cu
    12
Selective dynamics
Direct
  0.0000000000000000  0.0000000000000000  0.4346251358203546   F   F   F
  0.5000000000000000  0.0000000000000000  0.4346251358203546   F   F   F
  0.0000000000000000  0.5000000000000000  0.4346251358203546   F   F   F
  0.5000000000000000  0.5000000000000000  0.4346251358203546   F   F   F
  0.2500000000000000  0.2500000000000000  0.5000000000000000   F   F   F
  0.7500000000000000  0.2500000000000000  0.5000000000000000   F   F   F
  0.2500000000000000  0.7500000000000000  0.5000000000000000   F   F   F
  0.7500000000000000  0.7500000000000000  0.5000000000000000   F   F   F
  0.0000000000000000 -0.0000000000000000  0.5645657262390664   T   T   T
  0.5000000000000000 -0.0000000000000000  0.5645657262390664   T   T   T
  0.0000000000000000  0.5000000000000000  0.5645657262390664   T   T   T
  0.5000000000000000  0.5000000000000000  0.5645657262390664   T   T   T

  0.00000000E+00  0.00000000E+00  0.00000000E+00
  0.00000000E+00  0.00000000E+00  0.00000000E+00
  0.00000000E+00  0.00000000E+00  0.00000000E+00
  0.00000000E+00  0.00000000E+00  0.00000000E+00
  0.00000000E+00  0.00000000E+00  0.00000000E+00
  0.00000000E+00  0.00000000E+00  0.00000000E+00
  0.00000000E+00  0.00000000E+00  0.00000000E+00
  0.00000000E+00  0.00000000E+00  0.00000000E+00
  0.00000000E+00  0.00000000E+00  0.00000000E+00
  0.00000000E+00  0.00000000E+00  0.00000000E+00
  0.00000000E+00  0.00000000E+00  0.00000000E+00
  0.00000000E+00  0.00000000E+00  0.00000000E+00
